10 5 3.03 1 2 2 8 8196 4100
2 2 0 0 3
1 80
1 15
2 11
1 230
2 1280
1 1 0 550
2 2 0 500
3 2 0 570
4 2 0 500
5 2 0 510
6 2 0 560
7 2 0 500
8 2 0 580
0 1 1 180 9 1 2 1 12 1 5 3 16 1 2 1 4 1 11 1 1 2 8 1 4 3 16 1 2 4 15 1 5 1 4 2 10 1 2 1 17 1 5 3 19 1 2 4 9 1 1 2 2 2 5 1 4 4 7 1 1 1 4 2 13 1 3 3 14 1 4 4 19 1 5 1 6 1 2 1 4 2 5 1 2 1 15 1 1 3 18 1 3 4 9 1 2 1 2 3 11 1 1 1 10 1 1 1 4 1 7 1 3 2 20 1 2 3 13 1 3 4 7 1 4 2 3 1 16 1 5 2 20 1 1 3 16 1 2 
0 1 1 230 9 1 4 2 16 1 4 3 20 1 1 1 13 1 3 4 6 1 3 2 2 1 19 1 2 2 15 1 3 1 2 1 7 1 1 2 17 1 3 2 4 1 7 1 4 2 9 1 2 3 20 1 2 4 16 1 2 1 3 1 6 1 5 2 12 1 2 3 17 1 4 2 3 3 14 1 1 1 11 1 4 2 19 1 3 1 3 1 19 1 4 2 16 1 4 3 5 1 2 2 3 3 10 1 2 1 16 1 4 4 11 1 4 2 2 2 16 1 2 3 16 1 5 
0 1 1 140 12 2 4 2 19 1 2 4 6 1 3 1 9 1 2 3 19 1 5 2 3 1 14 1 2 2 18 1 5 3 11 1 1 2 4 1 15 1 3 2 9 1 1 3 9 1 5 4 15 1 1 2 4 1 17 1 2 2 6 1 5 3 20 1 2 4 15 1 1 1 4 3 14 1 1 1 5 1 5 4 11 1 1 2 11 1 1 1 2 2 12 1 4 3 20 1 4 1 4 1 20 1 5 3 8 1 3 2 20 1 4 4 17 1 3 1 3 3 15 1 5 2 19 1 3 4 14 1 2 2 3 1 17 1 1 2 18 1 5 3 6 1 4 2 4 1 10 1 1 2 20 1 5 3 18 1 5 4 9 1 3 1 2 1 5 1 4 2 15 1 4 2 4 3 15 1 5 1 13 1 3 2 10 1 4 4 10 1 4 
1 1 170 7 2 140 3 140 4 90 5 100 6 170 7 150 8 170 12 1 3 2 5 1 2 1 12 1 5 3 14 1 4 1 4 1 12 1 4 2 9 1 4 3 17 1 2 4 5 1 1 2 3 3 10 1 2 1 14 1 3 4 20 1 2 2 2 1 15 1 5 2 19 1 2 2 4 2 17 1 5 3 13 1 3 4 11 1 1 5 11 1 1 1 3 2 16 1 4 1 11 1 2 3 15 1 3 1 4 1 18 1 3 2 8 1 1 3 18 1 3 4 9 1 1 2 4 1 18 1 2 2 15 1 2 3 20 1 4 4 20 1 1 2 4 2 19 1 2 1 18 1 5 3 16 1 3 4 8 1 1 1 2 1 11 1 3 2 10 1 3 2 2 2 12 1 2 3 7 1 3 1 4 1 6 1 3 2 13 1 4 3 16 1 3 4 20 1 2 
1 1 100 7 2 110 3 140 4 190 5 90 6 120 7 130 8 170 10 2 3 3 9 1 5 4 16 1 3 5 19 1 1 2 3 2 12 1 4 1 6 1 2 3 6 1 3 1 4 2 20 1 4 1 13 1 5 3 6 1 5 4 18 1 4 2 3 2 15 1 2 4 15 1 3 1 10 1 2 1 3 3 13 1 4 2 17 1 5 1 6 1 3 1 2 3 11 1 3 4 12 1 2 1 3 3 9 1 3 1 11 1 1 2 14 1 3 1 4 1 10 1 2 2 6 1 2 3 9 1 2 4 5 1 5 1 3 1 12 1 5 2 19 1 3 3 11 1 4 2 2 2 7 1 4 1 14 1 2 
1 1 80 7 2 140 3 110 4 130 5 200 6 90 7 60 8 120 9 2 4 1 19 1 2 3 8 1 2 2 15 1 4 4 13 1 2 2 2 2 20 1 1 1 17 1 4 1 3 1 8 1 2 2 9 1 2 3 9 1 1 1 2 3 17 1 2 1 18 1 4 2 2 1 8 1 4 2 5 1 1 2 4 3 17 1 1 2 16 1 2 4 8 1 1 1 19 1 4 2 2 1 7 1 3 3 5 1 5 1 2 2 16 1 3 3 18 1 1 2 2 3 5 1 5 1 15 1 3 
1 1 200 7 2 110 3 180 4 90 5 120 6 180 7 160 8 120 10 1 3 1 11 1 4 2 9 1 1 3 15 1 4 2 2 2 12 1 4 1 12 1 1 1 2 1 7 1 2 2 17 1 3 1 2 2 16 1 4 3 10 1 2 1 2 2 16 1 1 3 17 1 5 2 4 1 5 1 4 2 19 1 4 3 15 1 2 4 18 1 4 2 3 1 9 1 3 3 12 1 1 4 9 1 2 1 3 1 10 1 1 2 7 1 3 3 8 1 4 1 4 3 6 1 3 1 7 1 4 2 13 1 2 4 13 1 3 2 4 2 19 1 1 1 7 1 3 3 18 1 3 4 16 1 2 
7 2 180 3 190 4 150 5 160 6 170 7 180 8 150 0 10 1 4 2 13 1 2 1 13 1 2 3 14 1 4 4 17 1 4 1 2 3 17 1 2 1 6 1 4 2 3 2 15 1 5 1 17 1 1 3 12 1 3 1 3 3 17 1 2 4 5 1 1 1 13 1 2 1 4 3 7 1 4 4 11 1 3 1 9 1 4 2 11 1 3 1 3 1 13 1 2 2 14 1 4 3 16 1 2 1 2 1 7 1 1 2 14 1 4 2 2 1 8 1 2 2 7 1 4 1 3 3 9 1 3 1 12 1 5 2 13 1 4 1 4 3 13 1 1 1 11 1 3 4 20 1 4 2 11 1 2 
7 2 130 3 170 4 170 5 200 6 170 7 170 8 250 0 11 1 4 3 11 1 5 1 7 1 3 2 19 1 1 4 13 1 1 2 3 2 18 1 4 1 16 1 2 3 11 1 3 1 4 3 18 1 2 4 5 1 4 1 16 1 4 5 9 1 3 2 3 2 17 1 4 1 17 1 5 3 18 1 4 1 3 1 7 1 1 4 15 1 2 2 11 1 1 2 2 3 18 1 5 2 16 1 2 1 2 3 14 1 2 1 18 1 3 1 3 1 18 1 2 3 12 1 1 2 6 1 1 2 3 2 14 1 1 1 11 1 5 3 17 1 1 2 4 2 17 1 4 1 19 1 4 3 5 1 4 4 16 1 2 2 2 2 11 1 1 3 18 1 5 
7 2 190 3 210 4 180 5 150 6 220 7 150 8 180 0 9 2 3 3 17 1 3 1 12 1 1 2 10 1 2 1 2 1 15 1 5 2 11 1 1 1 4 4 11 1 5 2 9 1 1 1 18 1 5 3 11 1 1 1 4 1 10 1 4 2 20 1 2 3 12 1 5 4 9 1 4 1 4 1 12 1 1 2 14 1 1 3 6 1 3 4 12 1 2 1 2 1 11 1 4 2 8 1 5 1 3 2 7 1 3 3 10 1 2 1 11 1 5 1 2 1 6 1 1 2 6 1 3 1 2 3 10 1 5 2 20 1 2 
